
 param N:= 10;
 param M:= 10;

 param B_c := 40;

 param B_CPU := 48;

 param B_m := 10;

 param: w cpu m:= 
1 	 3	 16 	 6
2 	 6	 12 	 3
3 	 14	 28 	 5
4 	 8	 22 	 1
5 	 10	 23 	 2
6 	 17	 6 	 5
7 	 6	 5 	 5
8 	 1	 24 	 3
9 	 13	 15 	 7
10 	 1	 14 	 6
;